; benchmark generated from python API
(set-info :status unknown)
(declare-fun C () Real)
(declare-fun S_3 () Real)
(declare-fun A_1 () Real)
(declare-fun L_1 () Real)
(declare-fun S_0 () Real)
(declare-fun S_1 () Real)
(declare-fun L_0 () Real)
(declare-fun A_0 () Real)
(declare-fun S_2 () Real)
(declare-fun S_4 () Real)
(declare-fun A_3 () Real)
(declare-fun L_2 () Real)
(declare-fun A_4 () Real)
(declare-fun B () Real)
(declare-fun A_2 () Real)
(assert
 (let (($x34 (>= L_0 0.0)))
 (let (($x597 (>= C 5.0)))
 (let (($x601 (>= B 5.0)))
 (let ((?x346 (* (- 1.0) S_2)))
 (let ((?x989 (* (- 2.0) C)))
 (let ((?x230 (* (- 1.0) B)))
 (let ((?x374 (* (- 1.0) A_4)))
 (let (($x5170 (<= (+ S_4 ?x374 A_3 ?x230 (* (- 3.0) C) (* (- 1.0) S_1)) 0.0)))
 (let (($x5365 (<= (+ S_4 (* (- 1.0) S_3) ?x374 A_3 ?x230 (* (- 1.0) C)) 0.0)))
 (let (($x5179 (<= (+ S_4 ?x374 A_3 (* (- 1.0) A_0) ?x230 (* (- 3.0) C) L_0) 0.0)))
 (let (($x5137 (<= (+ S_4 ?x374 A_3 ?x230 (* (- 4.0) C) (* (- 1.0) S_0)) 0.0)))
 (let (($x1918 (<= (+ (* (- 1.0) L_1) A_1 (* (- 1.0) S_4) (* 2.0 C)) 0.0)))
 (let (($x1016 (<= (+ (* (- 1.0) S_4) (* (- 1.0) L_2) A_3) 0.0)))
 (let (($x5796 (or $x1016 $x1918 (<= (+ (* (- 1.0) S_4) (* 3.0 C) S_0) 0.0))))
 (let (($x3036 (or (<= (+ (* (- 1.0) L_1) A_1 ?x346) 0.0) (<= (+ C ?x346 S_0) 0.0))))
 (let (($x3152 (or (<= (+ (* (- 1.0) L_1) A_1 (* (- 1.0) S_3) C) 0.0) (<= (+ (* (- 1.0) S_3) (* 2.0 C) S_0) 0.0))))
 (let (($x2387 (<= (+ S_4 (* (- 1.0) A_2) L_2 ?x374 A_3 (* (- 1.0) C)) 0.0)))
 (let (($x61 (= L_2 L_1)))
 (let (($x51 (= L_1 L_0)))
 (let (($x859 (not $x51)))
 (let (($x5881 (or $x61 $x859 (<= (+ A_1 (* (- 1.0) A_2) L_2 C (* (- 1.0) L_0)) 0.0))))
 (let (($x1863 (<= (+ A_2 (* (- 1.0) L_2) (* (- 3.0) C) (* (- 1.0) S_0) ?x230) 0.0)))
 (let (($x5923 (or $x1016 (<= (+ (* (- 1.0) S_4) A_2 (* (- 1.0) L_2) C ?x230) 0.0))))
 (let ((?x297 (* (- 1.0) C)))
 (let ((?x256 (* (- 1.0) L_2)))
 (let ((?x366 (* (- 1.0) A_1)))
 (let (($x5571 (<= 0.0 (+ L_1 ?x366 A_2 ?x256 ?x297 ?x230))))
 (let (($x7631 (or $x61 (<= (+ (* (- 1.0) A_2) L_2 (* 2.0 C) S_0 B) 0.0) $x5571)))
 (let (($x1968 (= (+ (* (- 1.0) L_1) A_1 (* (- 1.0) A_2) L_2 C B) 0.0)))
 (let (($x1329 (<= (+ (* (- 1.0) L_1) A_1 (* (- 1.0) S_4) (* 2.0 C) ?x230) 0.0)))
 (let (($x441 (or $x51 $x61 (= (+ (* (- 1.0) L_1) A_1 (* (- 1.0) A_2) L_2 C) 0.0))))
 (let (($x485 (<= 0.0 (+ (* (- 1.0) L_1) A_1 (* (- 1.0) A_2) L_2 C ?x230))))
 (let (($x1062 (<= (+ (* (- 1.0) L_1) A_1 (* (- 1.0) A_0) ?x297 ?x230 L_0) 0.0)))
 (let (($x108 (>= S_1 S_0)))
 (let (($x111 (>= S_2 S_1)))
 (let (($x114 (>= S_3 S_2)))
 (let (($x117 (>= S_4 S_3)))
 (let (($x119 (>= A_1 A_0)))
 (let (($x121 (>= A_3 A_2)))
 (let (($x122 (>= A_4 A_3)))
 (and $x122 $x121 $x119 $x117 $x114 $x111 $x108 (<= (+ A_1 (* (- 1.0) L_1)) S_3) (or $x51 (not (<= 0.0 (+ (* (- 1.0) L_1) L_0)))) (<= (+ (* (- 1.0) L_1) A_1 ?x346 ?x230) 0.0) $x1062 (<= (+ (* (- 1.0) L_1) A_1 ?x989 (* (- 1.0) S_0) ?x230) 0.0) (not $x485) (<= (+ (* (- 1.0) L_1) A_1 ?x297 (* (- 1.0) S_1) ?x230) 0.0) (<= (+ (* (- 1.0) L_1) A_1 (* (- 1.0) S_3) C ?x230) 0.0) (or $x51 (<= (+ L_1 ?x366 S_1 B) 0.0)) (or $x51 (<= (+ L_1 ?x366 C S_0 B) 0.0)) (or $x51 (<= (+ L_1 ?x366 ?x297 S_2 B) 0.0)) $x441 (or $x51 (<= 0.0 (+ A_1 (* (- 1.0) A_2) C)) (not $x61)) (or $x51 (<= (+ L_1 ?x366 S_4 (* (- 3.0) C) B) 0.0)) (or (<= (+ L_1 ?x366 ?x256 A_3 ?x989 B) 0.0) $x1329) (or $x51 (<= (+ L_1 ?x366 S_3 ?x989 B) 0.0)) (or $x51 (<= (+ L_1 ?x366 S_4 ?x374 A_3 ?x989) 0.0)) (not (<= (+ A_2 ?x256) S_3)) (or $x1016 $x1329) (<= (+ (* (- 1.0) S_3) A_2 ?x256 ?x230) 0.0) (or $x1968 (not $x5571)) (or $x61 (<= (+ (* (- 1.0) A_2) L_2 C S_1 B) 0.0)) (or $x61 (<= (+ (* (- 1.0) A_2) L_2 S_2 B) 0.0)) (or $x61 (<= (+ S_3 (* (- 1.0) A_2) L_2 ?x297 B) 0.0)) (<= (+ A_2 ?x256 (* (- 1.0) A_0) ?x989 ?x230 L_0) 0.0) (or $x61 (<= (+ S_4 (* (- 1.0) A_2) L_2 ?x989 B) 0.0)) (<= (+ A_2 ?x256 ?x297 ?x346 ?x230) 0.0) $x7631 $x5923 $x1863 (<= (+ A_2 ?x256 ?x989 (* (- 1.0) S_1) ?x230) 0.0) $x5881 (or $x61 $x2387) (or $x61 (not (<= 0.0 (+ L_1 ?x256)))) (<= (+ ?x989 S_2 (* (- 1.0) S_1)) 0.0) (<= (+ (* (- 3.0) C) S_2 (* (- 1.0) S_0)) 0.0) (<= (+ (* (- 1.0) A_0) ?x989 S_2 L_0) 0.0) (<= (+ (* (- 1.0) A_0) ?x297 S_1 L_0) 0.0) $x3152 $x3036 (<= (+ ?x989 S_1 (* (- 1.0) S_0)) 0.0) (<= (+ S_4 (* (- 4.0) C) (* (- 1.0) S_1)) 0.0) (<= (+ S_4 (* (- 1.0) A_0) (* (- 4.0) C) L_0) 0.0) (<= (+ S_4 (* (- 5.0) C) (* (- 1.0) S_0)) 0.0) (or $x1016 (<= (+ (* (- 1.0) S_4) (* 2.0 C) S_1) 0.0)) (or $x1016 (<= (+ (* (- 1.0) S_4) C S_2) 0.0)) $x5796 $x5137 $x5179 (<= (+ L_1 ?x366 S_4 ?x374 A_3 ?x230 ?x989) 0.0) $x5365 $x5170 (<= (+ S_4 ?x374 A_3 ?x230 ?x989 ?x346) 0.0) $x601 $x597 $x34 (<= (+ (* (- 1.0) A_0) S_0 L_0) 0.0) (<= (+ S_4 L_2 ?x374) 0.0) (<= (+ S_4 L_2 (* (- 1.0) A_3) ?x297) 0.0) (<= (+ L_1 ?x366 S_4 (* (- 3.0) C)) 0.0) (<= (+ L_1 ?x366 ?x297 S_2) 0.0) (<= (+ (* (- 1.0) S_3) C S_1) 0.0) (<= (+ L_1 ?x366 S_1) 0.0) (<= (+ S_4 (* (- 1.0) S_3) ?x989) 0.0) (<= (+ S_4 (* (- 3.0) C) ?x346) 0.0) (<= (+ S_3 ?x989 ?x346) 0.0) (<= (+ S_3 (* (- 1.0) A_0) (* (- 3.0) C) L_0) 0.0) (<= (+ S_3 (* (- 3.0) C) (* (- 1.0) S_1)) 0.0) (<= (+ S_3 (* (- 4.0) C) (* (- 1.0) S_0)) 0.0) (<= (+ L_1 ?x366 S_3 ?x989) 0.0)))))))))))))))))))))))))))))))))))))))))))
(check-sat)
